%MIP
% number of contracts
cc = 2;
% Teamsizes
sc = [1,3];
% team number
nc = [21,7];
%first team
fc = [1,22];
%last team
lc = [21,28];
% Length of schedule
w = 7;
% number of locations
m = 3;
% number of shift types (without breaks)s
t = 3;
% shift types of locations
SL0 = [1,2,3,4];
% number of forbidden combinations of length 2
f2 = 3;
% number of forbidden combinations of length 3
f3 = 0;
%required minimal length of blocks of work shifts
lw = [4,4];
% permitted maximal length of blocks of work shifts
uw= [5,7];
% min number of consecutive days off
b_min = [2,2];
%max number of consecutive days off
b_max = [3,4];

%temporal requirement Matrix
R = [|10, 10, 10, 10,  9,  5,  5
     | 9,  9,  9,  9,  8,  4,  4
     |15, 14, 14, 14, 14,  7,  7|];

R0 = [|10, 10, 10, 10,  9,  5,  5
      | 9,  9,  9,  9,  8,  4,  4
      |15, 14, 14, 14, 14,  7,  7
      | 8,  9,  9,  9, 11, 26, 26|]; 
                               

% first shifttype of forbidden length 2 combination
f2_sh1 = [3,3,2];
%second shifttype of forbidden length 2 combination
f2_sh2 = [1,2,1];
% first shifttype of forbidden length 2 combination
f3_sh1 = [0];
%second shifttype of forbidden length 2 combination
f3_sh2 = [0];
%required minimal length of periods of consecutive shifts of the same type
ls = [|3,3,2
      |2,2,2|];
% permitted maximal length of consecutive shifts of the same type
us = [|5,4,5
      |7,6,5|];